####################################################################### 
# 
# This file contains crystal structure data downloaded from the 
# Cambridge Structural Database (CSD) hosted by the Cambridge 
# Crystallographic Data Centre (CCDC).
# 
# Full information about CCDC data access policies and citation 
# guidelines are available at http://www.ccdc.cam.ac.uk/access/V1 
# 
# Audit and citation data items may have been added by the CCDC. 
# Please retain this information to preserve the provenance of 
# this file and to allow appropriate attribution of the data. 
# 
#######################################################################

data_compound_Rietveld_refinement_desolvated_UiO-66
_audit_block_doi                 10.5517/ccsm6yj
_database_code_depnum_ccdc_archive 'CCDC 733458'
loop_
_citation_id
_citation_doi
_citation_year
1 10.1021/ja8057953 2008
_audit_update_record             
;
2009-05-22 deposited with the CCDC.	2023-07-12 downloaded from the CCDC.
;

_audit_creation_method           'manually at CCDC'


_chemical_name_systematic        
;
?
;
_chemical_name_common            ?
_chemical_formula_sum            'C192 H96 O120 Zr24'
_chemical_formula_moiety         ?
_chemical_formula_weight         6512.10
_chemical_melting_point          ?

_symmetry_cell_setting           cubic
_symmetry_space_group_name_H-M   Fm-3m
_symmetry_Int_Tables_number      225

_cell_length_a                   20.7004(2)
_cell_length_b                   20.7004(2)
_cell_length_c                   20.7004(2)
_cell_angle_alpha                90
_cell_angle_beta                 90
_cell_angle_gamma                90
_cell_volume                     8870.3(2)
_cell_formula_units_Z            1

_exptl_crystal_density_diffrn    ?
_exptl_crystal_description       ?
_exptl_crystal_colour            ?
_exptl_special_details           
;
?
;

_diffrn_ambient_temperature      298
_diffrn_radiation_probe          x-ray

_refine_ls_R_factor_gt           0.011
_refine_special_details          
;
Rietveld refinement of desolvated UiO-66
Wavelength (\%A) 1.5405981
Pattern range (\% 2?) 5? 100
Rwp 0.022
RBragg 0.011
;

loop_
_atom_site_label
_atom_site_fract_x
_atom_site_fract_y
_atom_site_fract_z
_atom_site_U_iso_or_equiv
_atom_site_occupancy
Zr 0.11989(5) 0 0 1.29(3) 1
O1 0.17047(8) 0 0.0953(1) 1.90(8) 1
O2 0.0561(1) -0.0561(1) -0.0561(1) 0.4(1) 0.75
C11 0.1536(1) 0 -0.1536(1) 5.4(1) 1
C12 0.2050(2) 0 0.2050(2) 5.4(1) 1
C13 0.2675(1) 0 0.1844(1) 5.4(1) 1


loop_
_geom_bond_atom_site_label_1
_geom_bond_atom_site_label_2
_geom_bond_distance
Zr O1 2.232(2)
Zr O2 2.108(3)
O1 C11 1.257(3)
C11 C12 1.505(4)
C12 C13 1.363(4)
C13 C13 1.408(3)

loop_
_geom_angle_atom_site_label_1
_geom_angle_atom_site_label_2
_geom_angle_atom_site_label_3
_geom_angle
O1 C11 O11 122.3(2)
O1 C11 C12 118.9(2)
C11 C12 C13 116.8(3)
C12 C13 C13 116.8(3)
C13 C12 C13 126.5(3)


#END


